50
19968

963 133
929 644
978 308
786 780
410 511
672 557
505 836
384 252
317 373
699 522
557 44
302 276
884 581
139 768
161 576
897 705
576 848
230 179
803 845
462 89
803 616
846 483
476 681
604 192
270 333
105 887
854 621
276 727
56 576
118 768
722 318
321 461
69 726
706 332
463 648
137 181
257 418
382 73
448 210
497 855
123 224
801 809
303 949
450 166
1000 892
587 227
305 429
198 78
480 745
95 233
